c
c start with comments
c
p cnf 39 19
-35 41 5 0
-29 -17 0
29 36 29 0
-25 2 43 0
-15 -33 18 -25 -38 -48 0
9 -26 6 -34 48 0
45 -15 13 0
32 32 25 -4 0
6 -7 34 0
27 -8 34 -19 0
-24 46 0
-48 24 39 0
-10 28 0
-48 12 -28 0
5 -30 -1 26 -31 0
19 30 0
-3 -44 0
14 -25 -8 21 0
33 8 26 0